% Auto-generated by scripts/generate_dzn.py
% problem_type   = regex
% instance       = regex_23
% source_json    = instances_json/1_medium_blowup/regex_23.json
% blowup         = 4.666666666666667
% representation = NFA

mode = 1;

var_count = 22;
n_constraints = 2;
Q = 12;
S = 3;
q0 = [1, 1];
F = [{12}, {9}];
weights = [2, 10, 3, 9, 3, 7, 5, 9, 4, 1, 8, 10, 10, 9, 10, 7, 2, 8, 8, 10, 7, 1];
d_dfa = array3d(1..2, 1..12, 1..3, [
  % k = 1
    0, 0, 0,
    0, 0, 0,
    0, 0, 0,
    0, 0, 0,
    0, 0, 0,
    0, 0, 0,
    0, 0, 0,
    0, 0, 0,
    0, 0, 0,
    0, 0, 0,
    0, 0, 0,
    0, 0, 0,

  % k = 2
    0, 0, 0,
    0, 0, 0,
    0, 0, 0,
    0, 0, 0,
    0, 0, 0,
    0, 0, 0,
    0, 0, 0,
    0, 0, 0,
    0, 0, 0,
    0, 0, 0,
    0, 0, 0,
    0, 0, 0
]);
d_nfa = array3d(1..2, 1..12, 1..3, [
  % k = 1
    {1, 2}, {1}, {1},
    {}, {}, {3},
    {}, {4}, {},
    {5}, {5}, {5},
    {6}, {6}, {6},
    {7}, {7}, {7},
    {8}, {8}, {8},
    {9}, {9}, {9},
    {10}, {10}, {10},
    {11}, {11}, {11},
    {12}, {12}, {12},
    {}, {}, {},

  % k = 2
    {1}, {2}, {1},
    {2}, {3}, {2},
    {3}, {4}, {3},
    {4}, {5}, {4},
    {5}, {6}, {5},
    {6}, {7}, {6},
    {7}, {8}, {7},
    {8}, {9}, {8},
    {9}, {}, {9},
    {}, {}, {},
    {}, {}, {},
    {}, {}, {}
]);
